(set-logic HORN)
(declare-datatypes ((Nat_142 0)) (((Z_401 ) (S_142 (unS_146 Nat_142)))))
(declare-fun diseqNat_142 (Nat_142 Nat_142) Bool)
(declare-fun unS_147 (Nat_142 Nat_142) Bool)
(declare-fun isZ_142 (Nat_142) Bool)
(declare-fun isS_142 (Nat_142) Bool)
(assert (forall ((x_3880 Nat_142))
	(unS_147 x_3880 (S_142 x_3880))))
(assert (isZ_142 Z_401))
(assert (forall ((x_3882 Nat_142))
	(isS_142 (S_142 x_3882))))
(assert (forall ((x_3883 Nat_142))
	(diseqNat_142 Z_401 (S_142 x_3883))))
(assert (forall ((x_3884 Nat_142))
	(diseqNat_142 (S_142 x_3884) Z_401)))
(assert (forall ((x_3885 Nat_142) (x_3886 Nat_142))
	(=> (diseqNat_142 x_3885 x_3886)
	    (diseqNat_142 (S_142 x_3885) (S_142 x_3886)))))
(declare-fun add_73 (Nat_142 Nat_142 Nat_142) Bool)
(declare-fun minus_73 (Nat_142 Nat_142 Nat_142) Bool)
(declare-fun le_73 (Nat_142 Nat_142) Bool)
(declare-fun ge_73 (Nat_142 Nat_142) Bool)
(declare-fun lt_73 (Nat_142 Nat_142) Bool)
(declare-fun gt_73 (Nat_142 Nat_142) Bool)
(declare-fun mult_73 (Nat_142 Nat_142 Nat_142) Bool)
(declare-fun div_73 (Nat_142 Nat_142 Nat_142) Bool)
(declare-fun mod_73 (Nat_142 Nat_142 Nat_142) Bool)
(assert (forall ((y_317 Nat_142))
	(add_73 y_317 Z_401 y_317)))
(assert (forall ((x_3856 Nat_142) (y_317 Nat_142) (r_75 Nat_142))
	(=> (add_73 r_75 x_3856 y_317)
	    (add_73 (S_142 r_75) (S_142 x_3856) y_317))))
(assert (forall ((y_317 Nat_142))
	(minus_73 Z_401 Z_401 y_317)))
(assert (forall ((x_3856 Nat_142) (y_317 Nat_142) (r_75 Nat_142))
	(=> (minus_73 r_75 x_3856 y_317)
	    (minus_73 (S_142 r_75) (S_142 x_3856) y_317))))
(assert (forall ((y_317 Nat_142))
	(le_73 Z_401 y_317)))
(assert (forall ((x_3856 Nat_142) (y_317 Nat_142))
	(=> (le_73 x_3856 y_317)
	    (le_73 (S_142 x_3856) (S_142 y_317)))))
(assert (forall ((y_317 Nat_142))
	(ge_73 y_317 Z_401)))
(assert (forall ((x_3856 Nat_142) (y_317 Nat_142))
	(=> (ge_73 x_3856 y_317)
	    (ge_73 (S_142 x_3856) (S_142 y_317)))))
(assert (forall ((y_317 Nat_142))
	(lt_73 Z_401 (S_142 y_317))))
(assert (forall ((x_3856 Nat_142) (y_317 Nat_142))
	(=> (lt_73 x_3856 y_317)
	    (lt_73 (S_142 x_3856) (S_142 y_317)))))
(assert (forall ((y_317 Nat_142))
	(gt_73 (S_142 y_317) Z_401)))
(assert (forall ((x_3856 Nat_142) (y_317 Nat_142))
	(=> (gt_73 x_3856 y_317)
	    (gt_73 (S_142 x_3856) (S_142 y_317)))))
(assert (forall ((y_317 Nat_142))
	(mult_73 Z_401 Z_401 y_317)))
(assert (forall ((x_3856 Nat_142) (y_317 Nat_142) (r_75 Nat_142) (z_402 Nat_142))
	(=>	(and (mult_73 r_75 x_3856 y_317)
			(add_73 z_402 r_75 y_317))
		(mult_73 z_402 (S_142 x_3856) y_317))))
(assert (forall ((x_3856 Nat_142) (y_317 Nat_142))
	(=> (lt_73 x_3856 y_317)
	    (div_73 Z_401 x_3856 y_317))))
(assert (forall ((x_3856 Nat_142) (y_317 Nat_142) (r_75 Nat_142) (z_402 Nat_142))
	(=>	(and (ge_73 x_3856 y_317)
			(minus_73 z_402 x_3856 y_317)
			(div_73 r_75 z_402 y_317))
		(div_73 (S_142 r_75) x_3856 y_317))))
(assert (forall ((x_3856 Nat_142) (y_317 Nat_142))
	(=> (lt_73 x_3856 y_317)
	    (mod_73 x_3856 x_3856 y_317))))
(assert (forall ((x_3856 Nat_142) (y_317 Nat_142) (r_75 Nat_142) (z_402 Nat_142))
	(=>	(and (ge_73 x_3856 y_317)
			(minus_73 z_402 x_3856 y_317)
			(mod_73 r_75 z_402 y_317))
		(mod_73 r_75 x_3856 y_317))))
(declare-datatypes ((list_62 0)) (((nil_62 ) (cons_62 (head_124 Nat_142) (tail_124 list_62)))))
(declare-fun diseqlist_62 (list_62 list_62) Bool)
(declare-fun head_125 (Nat_142 list_62) Bool)
(declare-fun tail_125 (list_62 list_62) Bool)
(declare-fun isnil_62 (list_62) Bool)
(declare-fun iscons_62 (list_62) Bool)
(assert (forall ((x_3858 Nat_142) (x_3859 list_62))
	(head_125 x_3858 (cons_62 x_3858 x_3859))))
(assert (forall ((x_3858 Nat_142) (x_3859 list_62))
	(tail_125 x_3859 (cons_62 x_3858 x_3859))))
(assert (isnil_62 nil_62))
(assert (forall ((x_3861 Nat_142) (x_3862 list_62))
	(iscons_62 (cons_62 x_3861 x_3862))))
(assert (forall ((x_3863 Nat_142) (x_3864 list_62))
	(diseqlist_62 nil_62 (cons_62 x_3863 x_3864))))
(assert (forall ((x_3865 Nat_142) (x_3866 list_62))
	(diseqlist_62 (cons_62 x_3865 x_3866) nil_62)))
(assert (forall ((x_3867 Nat_142) (x_3868 list_62) (x_3869 Nat_142) (x_3870 list_62))
	(=> (diseqNat_142 x_3867 x_3869)
	    (diseqlist_62 (cons_62 x_3867 x_3868) (cons_62 x_3869 x_3870)))))
(assert (forall ((x_3867 Nat_142) (x_3868 list_62) (x_3869 Nat_142) (x_3870 list_62))
	(=> (diseqlist_62 x_3868 x_3870)
	    (diseqlist_62 (cons_62 x_3867 x_3868) (cons_62 x_3869 x_3870)))))
(declare-datatypes ((Nat_141 0)) (((Z_397 ) (S_141 (projS_136 Nat_141)))))
(declare-fun diseqNat_141 (Nat_141 Nat_141) Bool)
(declare-fun projS_137 (Nat_141 Nat_141) Bool)
(declare-fun isZ_141 (Nat_141) Bool)
(declare-fun isS_141 (Nat_141) Bool)
(assert (forall ((x_3872 Nat_141))
	(projS_137 x_3872 (S_141 x_3872))))
(assert (isZ_141 Z_397))
(assert (forall ((x_3874 Nat_141))
	(isS_141 (S_141 x_3874))))
(assert (forall ((x_3875 Nat_141))
	(diseqNat_141 Z_397 (S_141 x_3875))))
(assert (forall ((x_3876 Nat_141))
	(diseqNat_141 (S_141 x_3876) Z_397)))
(assert (forall ((x_3877 Nat_141) (x_3878 Nat_141))
	(=> (diseqNat_141 x_3877 x_3878)
	    (diseqNat_141 (S_141 x_3877) (S_141 x_3878)))))
(declare-fun take_12 (list_62 Nat_141 list_62) Bool)
(assert (forall ((x_3840 list_62) (x_3831 Nat_142) (x_3832 list_62) (z_398 Nat_141))
	(=> (take_12 x_3840 z_398 x_3832)
	    (take_12 (cons_62 x_3831 x_3840) (S_141 z_398) (cons_62 x_3831 x_3832)))))
(assert (forall ((z_398 Nat_141))
	(take_12 nil_62 (S_141 z_398) nil_62)))
(assert (forall ((y_314 list_62))
	(take_12 nil_62 Z_397 y_314)))
(declare-fun drop_13 (list_62 Nat_141 list_62) Bool)
(assert (forall ((x_3843 list_62) (x_3834 Nat_142) (x_3835 list_62) (z_399 Nat_141))
	(=> (drop_13 x_3843 z_399 x_3835)
	    (drop_13 x_3843 (S_141 z_399) (cons_62 x_3834 x_3835)))))
(assert (forall ((z_399 Nat_141))
	(drop_13 nil_62 (S_141 z_399) nil_62)))
(assert (forall ((x_3846 list_62))
	(drop_13 x_3846 Z_397 x_3846)))
(declare-fun x_3836 (Nat_141 Nat_141 Nat_141) Bool)
(assert (forall ((x_3847 Nat_141) (x_3838 Nat_141) (z_400 Nat_141))
	(=> (x_3836 x_3847 z_400 x_3838)
	    (x_3836 x_3847 (S_141 z_400) (S_141 x_3838)))))
(assert (forall ((z_400 Nat_141))
	(x_3836 (S_141 z_400) (S_141 z_400) Z_397)))
(assert (forall ((y_316 Nat_141))
	(x_3836 Z_397 Z_397 y_316)))
(assert (forall ((x_3851 list_62) (x_3852 list_62) (x_3853 Nat_141) (x_3854 list_62) (x_3855 list_62) (n_29 Nat_141) (m_15 Nat_141) (xs_116 list_62))
	(=>	(and true
			(diseqlist_62 x_3852 x_3855)
			(take_12 x_3851 m_15 xs_116)
			(drop_13 x_3852 n_29 x_3851)
			(x_3836 x_3853 m_15 n_29)
			(drop_13 x_3854 n_29 xs_116)
			(take_12 x_3855 x_3853 x_3854))
		false)))
(check-sat)
